100 500 10 200 10 100
67 48
41 168
84 113
91 53
62 28
38 54
60 153
76 105
44 119
40 199
32 152
85 123
23 145
96 27
56 146
65 19
49 73
35 62
54 61
74 66
78 146
17 156
40 160
98 17
76 15
78 99
81 129
64 62
41 112
81 66
46 196
63 62
40 74
18 110
84 18
52 25
46 142
53 96
96 53
14 22
40 153
32 14
98 145
32 19
62 180
42 103
10 141
83 88
99 90
77 151
89 29
61 117
41 181
28 61
16 129
60 81
67 196
37 197
31 186
56 17
24 81
44 163
45 130
17 70
34 103
42 151
29 30
64 82
59 93
49 33
13 49
28 114
44 33
88 28
68 160
65 196
47 180
23 96
42 73
42 141
85 190
41 88
67 172
26 42
40 137
98 97
80 182
31 43
87 177
97 44
32 109
53 188
23 41
14 20
66 84
74 93
73 86
16 126
26 153
72 155
